(set-logic QF_S)
(declare-fun var0 () String)
(declare-fun var1 () String)
(declare-fun var2 () String)
(declare-fun var3 () Int)
(declare-fun var4 () Int)
(declare-fun var5 () Int)
(declare-fun var6 () Bool)
(declare-fun var7 () Bool)
(declare-fun var8 () Bool)
(assert (str.in.re (str.at "Q""a6A\\TMkL" var5) (re.* re.allchar)))
(assert (str.suffixof (str.replace var0 var1 var0) (str.at var1 var5)))
(assert (> (str.len (str.replace var0 var1 var2)) (str.indexof var2 var2 8)))
(assert (<= (str.indexof (str.replace var0 "=\\-\\1fc{O+" var1) (str.substr var1 var5 1) (str.indexof "\\4""3];5u:^" var1 var5)) (str.indexof var2 "ULiQ@B#/x-" var5)))
(check-sat)